NAME : in_house_8_5
TYPE : TSP
DIMENSION : 8
EDGE_WEIGHT_TYPE : EXPLICIT
EDGE_WEIGHT_FORMAT : UPPER_ROW
COMMENT : INVERSION_SHIFT=6
EDGE_WEIGHT_SECTION
27
5
15
62
54
17
15
56
46
5
12
36
21
63
59
7
5
49
38
12
6
49
56
4
62
58
37
37
